/*********************************************
 * OPL 12.7.1.0 Data
 * Author: fargier
 * Creation Date: 20 nov. 2017 at 16:26:53
 *********************************************/
NbImages = 20 ;

TY = [1, 2, 1, 2, 1, 1, 1, 2, 1, 1, 1, 2, 1, 2, 1, 1, 1, 2, 1, 1] ;

 

PM = [10, 20, 10, 20, 10, 10, 10, 20, 10, 10, 10, 20, 10, 20, 10, 10,
10, 20, 10, 10] ; 

PA = [10, 20, 40, 30, 10, 20, 40, 20, 50, 20, 10, 20, 50, 30, 20, 10,
40, 10, 30, 20] ; 

NbInstruments = 3 ;

DD = [ [100, 200, 300], [130, 0, 330], [150, 250, 350], [200, 0, 400],
[220, 320, 420], [230, 330, 430], [250, 350, 450], [260, 0, 460],
[290, 390, 490], [300, 400, 500], [300, 400, 500], [320, 0, 520],
[330, 430, 530], [400, 0, 600], [420, 520, 620], [430, 530, 630],
[450, 550, 650], [460, 0, 660], [470, 570, 670], [500, 600, 700] ] ; 

AN = [ [10, 10, 10], [-5, 0, -5], [20, 20, 20], [-10, 0, -10], [5, 5,
5], [20, 20, 20], [10, 10, 10], [-10, 0, -10], [5, 5, 5], [15, 15,
15], [0, 0, 0], [-5, 0, -5], [20, 20, 20], [-15, 0, -15], [5, 5,
5], [20, 20, 20], [15, 15, 15], [-10, 0, -10], [5, 5, 5], [-15, -15,
-15] ] ; 

DU = 20 ;

VI = 1 ;


PMmax = 150 ;

// Probability of Cloudy Weather
ProbaInf =  [0, 0, 0, 0, 0, 0, 0, 0, 0, 0, 0, 0, 0, 0, 0, 0,
0, 0, 0, 0] ;

ProbaSup =  [0.1, 0.7, 0.1, 0.7, 0.1, 0.1, 0.1, 0.7, 0.1, 0.1, 0.1, 0.7, 0.1, 0.7, 0.1, 0.1,
0.1, 0.7, 0.1, 0.1];

// proba of failure of each instrument
Failure = [0, 0, 0] ;